
Welcome to IBM(R) ILOG(R) CPLEX(R) Interactive Optimizer Community Edition 12.9.0.0
  with Simplex, Mixed Integer & Barrier Optimizers
5725-A06 5725-A29 5724-Y48 5724-Y49 5724-Y54 5724-Y55 5655-Y21
Copyright IBM Corp. 1988, 2019.  All Rights Reserved.

Type 'help' for a list of available commands.
Type 'help' followed by a command name for more
information on commands.

CPLEX> Problem 'files/747.lp' read.
Read time = 0.00 sec. (0.04 ticks)
CPLEX> Tried aggregator 2 times.
MIP Presolve eliminated 105 rows and 56 columns.
MIP Presolve modified 48 coefficients.
Aggregator did 196 substitutions.
Reduced MIP has 53 rows, 197 columns, and 396 nonzeros.
Reduced MIP has 196 binaries, 0 generals, 0 SOSs, and 0 indicators.
Presolve time = 0.00 sec. (0.76 ticks)
Found incumbent of value 196.000000 after 0.00 sec. (0.87 ticks)
Probing time = 0.00 sec. (0.10 ticks)
Cover probing fixed 0 vars, tightened 6 bounds.
Tried aggregator 1 time.
Reduced MIP has 53 rows, 197 columns, and 396 nonzeros.
Reduced MIP has 196 binaries, 0 generals, 0 SOSs, and 0 indicators.
Presolve time = 0.00 sec. (0.34 ticks)
Probing time = 0.00 sec. (0.03 ticks)
MIP emphasis: balance optimality and feasibility.
MIP search method: dynamic search.
Parallel mode: deterministic, using up to 4 threads.
Root relaxation solution time = 0.00 sec. (0.51 ticks)

        Nodes                                         Cuts/
   Node  Left     Objective  IInf  Best Integer    Best Bound    ItCnt     Gap

*     0+    0                          196.0000        7.0000            96.43%
      0     0       98.0000     6      196.0000       98.0000      106   50.00%
*     0+    0                          100.0000       98.0000             2.00%
      0     0       98.0000     6      100.0000       Cuts: 6      109    2.00%
*     0+    0                           99.5000       98.0000             1.51%
      0     0       98.0000    12       99.5000       Cuts: 4      114    1.51%
*     0+    0                           99.0000       98.0000             1.01%
      0     2       98.0000     5       99.0000       98.0000      114    1.01%
Elapsed time = 0.03 sec. (8.80 ticks, tree = 0.02 MB, solutions = 4)
*     8+    1                           98.5000       98.0000             0.51%
*    33+    2                           98.0000       98.0000             0.00%

Root node processing (before b&c):
  Real time             =    0.03 sec. (8.77 ticks)
Parallel b&c, 4 threads:
  Real time             =    0.01 sec. (1.84 ticks)
  Sync time (average)   =    0.00 sec.
  Wait time (average)   =    0.00 sec.
                          ------------
Total (root+branch&cut) =    0.04 sec. (10.61 ticks)

Solution pool: 8 solutions saved.

MIP - Integer optimal solution:  Objective =  9.8000000000e+01
Solution time =    0.04 sec.  Iterations = 293  Nodes = 48
Deterministic time = 10.61 ticks  (290.53 ticks/sec)

CPLEX> Incumbent solution
Variable Name           Solution Value
r                            98.000000
x111                          1.000000
x141                          1.000000
x112                          1.500000
x142                          1.500000
x113                          2.000000
x143                          2.000000
x114                          2.500000
x144                          2.500000
x125                          3.000000
x145                          3.000000
x116                          3.500000
x146                          3.500000
x127                          4.000000
x147                          4.000000
x211                          1.500000
x241                          1.500000
x212                          2.000000
x242                          2.000000
x223                          2.500000
x243                          2.500000
x224                          3.000000
x244                          3.000000
x235                          3.500000
x245                          3.500000
x226                          4.000000
x246                          4.000000
x217                          4.500000
x237                          4.500000
x311                          2.000000
x341                          2.000000
x312                          2.500000
x322                          2.500000
x323                          3.000000
x333                          3.000000
x324                          3.500000
x334                          3.500000
x325                          4.000000
x345                          4.000000
x326                          4.500000
x336                          4.500000
x317                          5.000000
x347                          5.000000
x411                          2.500000
x421                          2.500000
x422                          3.000000
x442                          3.000000
x423                          3.500000
x443                          3.500000
x424                          4.000000
x444                          4.000000
x415                          4.500000
x435                          4.500000
x416                          5.000000
x436                          5.000000
x417                          5.500000
x437                          5.500000
x521                          3.000000
x541                          3.000000
x522                          3.500000
x542                          3.500000
x523                          4.000000
x543                          4.000000
x524                          4.500000
x544                          4.500000
x515                          5.000000
x535                          5.000000
x516                          5.500000
x536                          5.500000
x517                          6.000000
x537                          6.000000
x621                          3.500000
x641                          3.500000
x622                          4.000000
x642                          4.000000
x623                          4.500000
x643                          4.500000
x624                          5.000000
x634                          5.000000
x615                          5.500000
x635                          5.500000
x616                          6.000000
x636                          6.000000
x617                          6.500000
x637                          6.500000
x721                          4.000000
x741                          4.000000
x722                          4.500000
x742                          4.500000
x723                          5.000000
x733                          5.000000
x714                          5.500000
x724                          5.500000
x715                          6.000000
x735                          6.000000
x716                          6.500000
x736                          6.500000
x737                          7.000000
x747                          7.000000
c11                          11.000000
c12                           7.000000
c14                          18.000000
c21                           8.000000
c22                          10.000000
c23                           8.000000
c24                          17.000000
c31                          10.000000
c32                          18.000000
c33                          11.000000
c34                          11.000000
c41                          18.000000
c42                          13.000000
c43                          15.000000
c44                          11.000000
c51                          17.000000
c52                          15.000000
c53                          17.000000
c54                          15.000000
c61                          18.000000
c62                          17.000000
c63                          23.000000
c64                          12.000000
c71                          18.000000
c72                          20.000000
c73                          25.000000
c74                          16.000000
d11                           7.000000
d21                          13.000000
d41                          15.000000
d12                           6.000000
d22                          18.000000
d42                          19.000000
d13                           2.000000
d23                          23.000000
d33                           8.000000
d43                          17.000000
d14                           8.000000
d24                          26.000000
d34                           9.000000
d44                          14.000000
d15                          21.000000
d25                           7.000000
d35                          25.000000
d45                          11.000000
d16                          27.000000
d26                           9.000000
d36                          28.000000
d46                           8.000000
d17                          28.000000
d27                           5.000000
d37                          30.000000
d47                          16.000000
u111                          1.000000
u141                          1.000000
u112                          1.000000
u142                          1.000000
u113                          1.000000
u143                          1.000000
u114                          1.000000
u144                          1.000000
u125                          1.000000
u145                          1.000000
u116                          1.000000
u146                          1.000000
u127                          1.000000
u147                          1.000000
u211                          1.000000
u241                          1.000000
u212                          1.000000
u242                          1.000000
u223                          1.000000
u243                          1.000000
u224                          1.000000
u244                          1.000000
u235                          1.000000
u245                          1.000000
u226                          1.000000
u246                          1.000000
u217                          1.000000
u237                          1.000000
u311                          1.000000
u341                          1.000000
u312                          1.000000
u322                          1.000000
u323                          1.000000
u333                          1.000000
u324                          1.000000
u334                          1.000000
u325                          1.000000
u345                          1.000000
u326                          1.000000
u336                          1.000000
u317                          1.000000
u347                          1.000000
u411                          1.000000
u421                          1.000000
u422                          1.000000
u442                          1.000000
u423                          1.000000
u443                          1.000000
u424                          1.000000
u444                          1.000000
u415                          1.000000
u435                          1.000000
u416                          1.000000
u436                          1.000000
u417                          1.000000
u437                          1.000000
u521                          1.000000
u541                          1.000000
u522                          1.000000
u542                          1.000000
u523                          1.000000
u543                          1.000000
u524                          1.000000
u544                          1.000000
u515                          1.000000
u535                          1.000000
u516                          1.000000
u536                          1.000000
u517                          1.000000
u537                          1.000000
u621                          1.000000
u641                          1.000000
u622                          1.000000
u642                          1.000000
u623                          1.000000
u643                          1.000000
u624                          1.000000
u634                          1.000000
u615                          1.000000
u635                          1.000000
u616                          1.000000
u636                          1.000000
u617                          1.000000
u637                          1.000000
u721                          1.000000
u741                          1.000000
u722                          1.000000
u742                          1.000000
u723                          1.000000
u733                          1.000000
u714                          1.000000
u724                          1.000000
u715                          1.000000
u735                          1.000000
u716                          1.000000
u736                          1.000000
u737                          1.000000
u747                          1.000000
All other variables in the range 1-449 are 0.
CPLEX> 